100
128
60
43
57
36
44
3
46
61
14
28
35
35
25
28
48
45
25
5
6
38
42
13
12
17
60
54
59
59
57
18
11
42
19
38
20
51
13
42
25
31
30
37
48
60
40
19
28
34
58
36
37
39
29
64
63
23
32
50
46
23
34
32
40
20
61
40
26
27
28
42
47
24
56
64
32
32
40
8
36
44
31
27
52
56
32
48
40
60
31
43
31
54
37
30
51
2
60
4
63
45